c b=5,c=505
p cnf 19 103
1 2 5 -10 0
1 2 3 4 5 -13 0
1 2 3 4 5 -14 0
2 3 4 5 -15 0
1 3 4 5 -16 0
1 2 4 5 -17 0
1 2 3 5 -18 0
1 2 -5 10 0
1 3 4 -5 13 0
-5 14 0
1 -5 15 0
1 2 -5 16 0
1 2 3 -5 17 0
1 2 3 4 -5 18 0
1 4 -9 0
1 2 3 4 -12 0
1 2 3 4 -19 0
-4 5 13 0
5 -19 0
-4 -5 -13 0
-4 -5 19 0
1 -4 9 0
2 3 -4 12 0
-4 14 0
1 -4 15 0
1 2 -4 16 0
1 2 3 -4 17 0
1 2 3 -4 -18 0
3 -8 0
1 2 3 -11 0
-3 5 13 0
-3 -5 -13 0
-3 -5 19 0
-3 4 12 0
-3 4 -18 0
-3 -4 -12 0
-3 -4 18 0
-3 8 0
1 2 -3 11 0
-3 14 0
1 -3 15 0
1 2 -3 16 0
1 2 -3 -17 0
2 -7 0
1 -2 5 10 0
-2 3 5 11 0
-2 4 5 12 0
1 -2 -5 -10 0
1 3 -5 -11 0
1 3 4 -5 -12 0
-2 -5 19 0
1 -2 3 4 13 0
-2 4 -18 0
-2 -4 5 -12 0
-2 5 13 0
1 3 -4 -5 12 0
-2 -4 18 0
-2 3 -17 0
-2 -3 5 -11 0
1 -3 -5 11 0
-2 -3 17 0
-2 7 0
-2 14 0
1 -2 15 0
1 -2 -16 0
1 -6 0
-1 2 4 5 10 0
-1 3 4 5 11 0
-1 2 3 5 12 0
-1 2 4 -5 -10 0
2 3 -5 -11 0
2 3 4 -5 -12 0
-1 -5 19 0
-1 4 9 0
-1 2 3 4 13 0
-1 4 -18 0
2 -4 5 -10 0
-1 5 13 0
2 -4 -5 10 0
-1 -4 -9 0
2 3 -4 -11 0
-1 -4 18 0
-1 3 -17 0
-1 -3 4 5 -11 0
2 -3 -5 11 0
2 -3 -4 11 0
-1 -3 17 0
-1 2 -16 0
-1 -2 4 5 -10 0
-1 -2 4 -5 10 0
-1 -2 -5 -13 0
-1 -2 3 4 11 0
-1 -2 4 12 0
-2 -4 5 10 0
-2 -4 -5 -10 0
3 -4 -5 -11 0
-1 -2 3 -5 12 0
-1 -2 -3 4 -11 0
-3 -4 -5 11 0
-1 -2 16 0
-1 6 0
-1 14 0
-1 -15 0
